NAME          DCAP_3_4_2_500_SS383
ROWS
 N  OBJ
 L  CON1
 L  CON2
 L  CON3
 L  CON4
 L  CON5
 L  CON6
 L  CON7
 L  CON8
 L  CON9
 L  CON10
 L  CON11
 L  CON12
 E  CON13
 E  CON14
 E  CON15
 E  CON16
 E  CON17
 E  CON18
 E  CON19
 E  CON20
COLUMNS
    x[1,1]    OBJ       6.180167      CON1      1.000000    
    x[1,1]    CON7      -1.000000     CON8      -1.000000   
    x[1,2]    OBJ       5.039546      CON2      1.000000    
    x[1,2]    CON8      -1.000000   
    x[2,1]    OBJ       6.732585      CON3      1.000000    
    x[2,1]    CON9      -1.000000     CON10     -1.000000   
    x[2,2]    OBJ       7.443064      CON4      1.000000    
    x[2,2]    CON10     -1.000000   
    x[3,1]    OBJ       6.563535      CON5      1.000000    
    x[3,1]    CON11     -1.000000     CON12     -1.000000   
    x[3,2]    OBJ       6.054841      CON6      1.000000    
    x[3,2]    CON12     -1.000000   
    MARKER    'MARKER'                'INTORG'
    u[1,1]    OBJ       48.076654     CON1      -1.000000   
    u[1,2]    OBJ       49.466655     CON2      -1.000000   
    u[2,1]    OBJ       49.996186     CON3      -1.000000   
    u[2,2]    OBJ       32.230043     CON4      -1.000000   
    u[3,1]    OBJ       20.066487     CON5      -1.000000   
    u[3,2]    OBJ       27.484319     CON6      -1.000000   
    y[1,1,1]  OBJ       5.438228      CON7      0.665549    
    y[1,1,1]  CON13     1.000000    
    y[1,1,2]  OBJ       8.654061      CON8      1.076876    
    y[1,1,2]  CON14     1.000000    
    y[1,2,1]  OBJ       6.092198      CON7      1.156362    
    y[1,2,1]  CON15     1.000000    
    y[1,2,2]  OBJ       8.578992      CON8      1.037619    
    y[1,2,2]  CON16     1.000000    
    y[1,3,1]  OBJ       9.719443      CON7      1.167476    
    y[1,3,1]  CON17     1.000000    
    y[1,3,2]  OBJ       6.444118      CON8      1.157945    
    y[1,3,2]  CON18     1.000000    
    y[1,4,1]  OBJ       9.356600      CON7      0.686007    
    y[1,4,1]  CON19     1.000000    
    y[1,4,2]  OBJ       9.576920      CON8      0.648455    
    y[1,4,2]  CON20     1.000000    
    y[2,1,1]  OBJ       6.140313      CON9      0.665549    
    y[2,1,1]  CON13     1.000000    
    y[2,1,2]  OBJ       9.266326      CON10     1.076876    
    y[2,1,2]  CON14     1.000000    
    y[2,2,1]  OBJ       6.872294      CON9      1.156362    
    y[2,2,1]  CON15     1.000000    
    y[2,2,2]  OBJ       8.896741      CON10     1.037619    
    y[2,2,2]  CON16     1.000000    
    y[2,3,1]  OBJ       8.730176      CON9      1.167476    
    y[2,3,1]  CON17     1.000000    
    y[2,3,2]  OBJ       9.641878      CON10     1.157945    
    y[2,3,2]  CON18     1.000000    
    y[2,4,1]  OBJ       6.241684      CON9      0.686007    
    y[2,4,1]  CON19     1.000000    
    y[2,4,2]  OBJ       5.374861      CON10     0.648455    
    y[2,4,2]  CON20     1.000000    
    y[3,1,1]  OBJ       9.665932      CON11     0.665549    
    y[3,1,1]  CON13     1.000000    
    y[3,1,2]  OBJ       9.006428      CON12     1.076876    
    y[3,1,2]  CON14     1.000000    
    y[3,2,1]  OBJ       9.605475      CON11     1.156362    
    y[3,2,1]  CON15     1.000000    
    y[3,2,2]  OBJ       7.343473      CON12     1.037619    
    y[3,2,2]  CON16     1.000000    
    y[3,3,1]  OBJ       7.700125      CON11     1.167476    
    y[3,3,1]  CON17     1.000000    
    y[3,3,2]  OBJ       8.603220      CON12     1.157945    
    y[3,3,2]  CON18     1.000000    
    y[3,4,1]  OBJ       9.257743      CON11     0.686007    
    y[3,4,1]  CON19     1.000000    
    y[3,4,2]  OBJ       7.095376      CON12     0.648455    
    y[3,4,2]  CON20     1.000000    
    z[1,1]    OBJ       717.060416    CON13     1.000000    
    z[1,2]    OBJ       764.086458    CON14     1.000000    
    z[2,1]    OBJ       744.435793    CON15     1.000000    
    z[2,2]    OBJ       923.266273    CON16     1.000000    
    z[3,1]    OBJ       892.480257    CON17     1.000000    
    z[3,2]    OBJ       722.042605    CON18     1.000000    
    z[4,1]    OBJ       647.089286    CON19     1.000000    
    z[4,2]    OBJ       800.896171    CON20     1.000000    
    MARKER    'MARKER'                 'INTEND'
RHS
    RHS       CON1      -0.000000     CON2      -0.000000   
    RHS       CON3      -0.000000     CON4      -0.000000   
    RHS       CON5      -0.000000     CON6      -0.000000   
    RHS       CON7      -0.000000     CON8      -0.000000   
    RHS       CON9      -0.000000     CON10     -0.000000   
    RHS       CON11     -0.000000     CON12     -0.000000   
    RHS       CON13     1.000000      CON14     1.000000    
    RHS       CON15     1.000000      CON16     1.000000    
    RHS       CON17     1.000000      CON18     1.000000    
    RHS       CON19     1.000000      CON20     1.000000    
BOUNDS
 BV BOUND     u[1,1]  
 BV BOUND     u[1,2]  
 BV BOUND     u[2,1]  
 BV BOUND     u[2,2]  
 BV BOUND     u[3,1]  
 BV BOUND     u[3,2]  
 BV BOUND     y[1,1,1]
 BV BOUND     y[1,1,2]
 BV BOUND     y[1,2,1]
 BV BOUND     y[1,2,2]
 BV BOUND     y[1,3,1]
 BV BOUND     y[1,3,2]
 BV BOUND     y[1,4,1]
 BV BOUND     y[1,4,2]
 BV BOUND     y[2,1,1]
 BV BOUND     y[2,1,2]
 BV BOUND     y[2,2,1]
 BV BOUND     y[2,2,2]
 BV BOUND     y[2,3,1]
 BV BOUND     y[2,3,2]
 BV BOUND     y[2,4,1]
 BV BOUND     y[2,4,2]
 BV BOUND     y[3,1,1]
 BV BOUND     y[3,1,2]
 BV BOUND     y[3,2,1]
 BV BOUND     y[3,2,2]
 BV BOUND     y[3,3,1]
 BV BOUND     y[3,3,2]
 BV BOUND     y[3,4,1]
 BV BOUND     y[3,4,2]
 BV BOUND     z[1,1]  
 BV BOUND     z[1,2]  
 BV BOUND     z[2,1]  
 BV BOUND     z[2,2]  
 BV BOUND     z[3,1]  
 BV BOUND     z[3,2]  
 BV BOUND     z[4,1]  
 BV BOUND     z[4,2]  
ENDATA
